<number of tasks>
50

<cycle time>
1000

<order strength>
0.599


<task times>
1 481
2 426
3 596
4 421
5 530
6 487
7 622
8 417
9 625
10 484
11 709
12 618
13 440
14 263
15 351
16 559
17 625
18 564
19 658
20 325
21 523
22 618
23 587
24 667
25 495
26 583
27 488
28 452
29 491
30 351
31 731
32 451
33 554
34 665
35 761
36 425
37 530
38 541
39 526
40 398
41 538
42 550
43 566
44 689
45 498
46 541
47 498
48 342
49 328
50 532

<precedence relations>
1,13
1,25
2,5
2,11
2,14
3,4
3,5
3,6
4,7
4,9
4,16
4,20
5,7
5,9
5,10
5,20
6,7
6,8
6,11
6,12
7,15
8,13
8,15
8,18
9,27
9,32
10,17
11,35
12,14
12,16
12,18
13,20
14,21
15,25
17,19
17,23
18,19
18,24
19,25
20,30
21,22
21,23
21,24
22,26
22,27
22,28
22,29
23,26
23,44
24,26
24,27
24,29
25,26
25,28
25,29
26,40
26,46
26,48
27,30
28,30
28,31
28,32
29,30
29,32
30,38
30,39
30,42
30,48
31,37
31,44
32,33
32,34
32,35
32,36
34,39
34,41
35,40
35,43
35,44
35,45
37,42
38,45
39,46
39,49
39,50
40,47
41,45
41,47
41,48
42,46
43,49
44,46

<end>
